c t wmc
c file mc2023_track2_139.cnf
p cnf 90 252
82 66 -24 0
25 34 -49 0
11 78 -7 0
-53 -46 -37 0
38 -70 -14 0
53 -12 83 0
76 70 57 0
55 26 5 0
-59 25 90 0
73 -82 -66 0
86 87 71 0
86 -24 -13 0
-65 -36 62 0
-45 -42 32 0
38 -87 -23 0
-33 88 -14 0
15 -70 32 0
-74 -34 45 0
41 -24 -74 0
-34 -19 -32 0
-53 -26 -19 0
-51 2 -31 0
67 6 -54 0
-69 63 -3 0
-31 86 29 0
-70 -40 11 0
-62 -53 -8 0
-74 66 -59 0
48 43 -41 0
-16 50 -20 0
-26 82 -49 0
63 -13 73 0
-12 -7 -62 0
-60 -77 -45 0
42 -87 72 0
-78 37 12 0
29 40 -9 0
-35 -18 -23 0
-80 -27 -30 0
60 -28 -11 0
-42 -17 14 0
-29 52 -46 0
-70 5 -28 0
61 69 -43 0
-53 7 -54 0
18 -25 68 0
8 65 25 0
13 80 18 0
82 -30 57 0
12 54 6 0
40 -26 -59 0
-37 46 -86 0
-42 88 52 0
-75 18 30 0
44 -46 -22 0
66 39 6 0
14 47 90 0
-12 -74 -55 0
-56 27 -71 0
-67 -73 -53 0
26 80 82 0
53 2 76 0
61 -49 -69 0
-53 22 -61 0
58 79 -83 0
30 -33 36 0
-51 -43 53 0
13 15 61 0
4 -53 -54 0
32 11 -34 0
-20 81 70 0
2 1 73 0
-32 81 13 0
-6 -9 -89 0
-17 31 -19 0
86 -4 -13 0
-71 44 18 0
-13 32 86 0
26 67 12 0
-50 -56 -52 0
47 -70 -66 0
-45 -46 -9 0
-22 -4 50 0
-34 -23 -53 0
41 17 -65 0
-11 14 52 0
36 -70 26 0
-83 -16 76 0
40 -43 53 0
-24 -76 -59 0
-77 30 -79 0
47 -70 -78 0
52 -3 -71 0
78 -69 -56 0
20 8 75 0
40 -9 -57 0
-28 -45 17 0
3 -24 14 0
-66 -20 7 0
-30 32 -15 0
-51 -33 25 0
63 13 26 0
-51 -63 -85 0
-57 9 8 0
42 -23 80 0
-32 12 -17 0
-10 -62 67 0
-77 51 63 0
-90 -82 11 0
37 -17 -19 0
-23 43 8 0
-31 29 -65 0
84 -21 58 0
-10 -83 -29 0
43 53 73 0
-59 -60 -70 0
29 33 82 0
-80 24 -89 0
-22 -89 -47 0
43 -51 44 0
-4 -6 -21 0
-42 60 25 0
-37 -70 84 0
57 44 -33 0
-6 -52 8 0
55 -66 6 0
28 -71 -24 0
-49 -3 -81 0
-78 -48 81 0
-43 -3 82 0
20 14 58 0
87 -23 81 0
-20 34 -78 0
-31 71 -80 0
88 -70 -38 0
-70 25 -33 0
74 58 -33 0
-71 -45 80 0
63 -74 49 0
-71 2 31 0
48 -84 19 0
31 -21 23 0
63 88 77 0
24 61 -7 0
90 -36 3 0
-54 -27 -11 0
-34 1 -3 0
46 45 19 0
-51 -39 -33 0
-42 -21 8 0
87 -84 26 0
-59 31 -54 0
-27 -81 52 0
-66 13 -5 0
-14 46 75 0
50 -10 -16 0
63 26 -72 0
39 -89 8 0
25 32 -42 0
-74 -7 -59 0
87 -19 41 0
-33 77 -19 0
44 -24 71 0
-73 44 -77 0
-39 -89 -34 0
-56 46 -88 0
58 70 -13 0
-9 -76 48 0
-78 -64 -47 0
-68 39 75 0
-31 8 82 0
-45 -46 48 0
51 -1 -64 0
-14 -20 -9 0
58 49 -54 0
58 3 26 0
-36 -61 13 0
72 81 28 0
85 -5 -35 0
-39 -57 46 0
87 -71 -88 0
-35 -36 -53 0
40 -27 -44 0
44 9 -39 0
20 -3 81 0
-36 -13 -84 0
-47 -49 80 0
73 -63 32 0
63 53 -65 0
88 -8 4 0
-37 -7 56 0
22 76 25 0
90 65 -10 0
-58 67 8 0
6 9 57 0
-19 55 -24 0
-8 -10 57 0
63 -43 80 0
16 -74 -19 0
68 72 -50 0
68 5 32 0
-20 60 -88 0
-35 -5 -25 0
-14 -1 79 0
-71 24 -69 0
-11 32 33 0
52 80 83 0
-84 -7 -70 0
-80 -26 -57 0
-90 -9 70 0
40 3 -35 0
-76 -47 -51 0
73 -88 -35 0
-42 -32 -47 0
-2 38 -89 0
-47 -10 80 0
-90 73 25 0
-74 44 -2 0
81 -30 46 0
-67 -7 70 0
30 -48 31 0
85 30 -31 0
79 -90 10 0
64 -70 -9 0
-21 -20 -18 0
29 -9 48 0
-71 -67 33 0
79 -13 -33 0
-19 -64 -44 0
-52 -85 -15 0
44 56 57 0
69 -84 -78 0
-66 -11 -16 0
-66 -85 -2 0
79 -74 -6 0
-31 72 70 0
14 19 89 0
-1 -28 88 0
-61 46 -89 0
8 -76 -51 0
13 63 1 0
4 -21 -71 0
30 87 39 0
-47 2 -87 0
-85 -73 52 0
9 -27 68 0
57 -58 6 0
-3 74 -55 0
18 34 -77 0
-85 -3 67 0
73 11 -33 0
48 -7 20 0
c p weight 69 0.53214720 0
c p weight -69 0.46785280 0
c p weight 24 0.54959959 0
c p weight -24 0.45040041 0
c p weight 1 1 0
c p weight -1 1 0
c p weight 2 1 0
c p weight -2 1 0
c p weight 3 1 0
c p weight -3 1 0
c p weight 4 1 0
c p weight -4 1 0
c p weight 5 1 0
c p weight -5 1 0
c p weight 6 1 0
c p weight -6 1 0
c p weight 7 1 0
c p weight -7 1 0
c p weight 8 1 0
c p weight -8 1 0
c p weight 9 1 0
c p weight -9 1 0
c p weight 10 1 0
c p weight -10 1 0
c p weight 11 1 0
c p weight -11 1 0
c p weight 12 1 0
c p weight -12 1 0
c p weight 13 1 0
c p weight -13 1 0
c p weight 14 1 0
c p weight -14 1 0
c p weight 15 1 0
c p weight -15 1 0
c p weight 16 1 0
c p weight -16 1 0
c p weight 17 1 0
c p weight -17 1 0
c p weight 18 1 0
c p weight -18 1 0
c p weight 19 1 0
c p weight -19 1 0
c p weight 20 1 0
c p weight -20 1 0
c p weight 21 1 0
c p weight -21 1 0
c p weight 22 1 0
c p weight -22 1 0
c p weight 23 1 0
c p weight -23 1 0
c p weight 25 1 0
c p weight -25 1 0
c p weight 26 1 0
c p weight -26 1 0
c p weight 27 1 0
c p weight -27 1 0
c p weight 28 1 0
c p weight -28 1 0
c p weight 29 1 0
c p weight -29 1 0
c p weight 30 1 0
c p weight -30 1 0
c p weight 31 1 0
c p weight -31 1 0
c p weight 32 1 0
c p weight -32 1 0
c p weight 33 1 0
c p weight -33 1 0
c p weight 34 1 0
c p weight -34 1 0
c p weight 35 1 0
c p weight -35 1 0
c p weight 36 1 0
c p weight -36 1 0
c p weight 37 1 0
c p weight -37 1 0
c p weight 38 1 0
c p weight -38 1 0
c p weight 39 1 0
c p weight -39 1 0
c p weight 40 1 0
c p weight -40 1 0
c p weight 41 1 0
c p weight -41 1 0
c p weight 42 1 0
c p weight -42 1 0
c p weight 43 1 0
c p weight -43 1 0
c p weight 44 1 0
c p weight -44 1 0
c p weight 45 1 0
c p weight -45 1 0
c p weight 46 1 0
c p weight -46 1 0
c p weight 47 1 0
c p weight -47 1 0
c p weight 48 1 0
c p weight -48 1 0
c p weight 49 1 0
c p weight -49 1 0
c p weight 50 1 0
c p weight -50 1 0
c p weight 51 1 0
c p weight -51 1 0
c p weight 52 1 0
c p weight -52 1 0
c p weight 53 1 0
c p weight -53 1 0
c p weight 54 1 0
c p weight -54 1 0
c p weight 55 1 0
c p weight -55 1 0
c p weight 56 1 0
c p weight -56 1 0
c p weight 57 1 0
c p weight -57 1 0
c p weight 58 1 0
c p weight -58 1 0
c p weight 59 1 0
c p weight -59 1 0
c p weight 60 1 0
c p weight -60 1 0
c p weight 61 1 0
c p weight -61 1 0
c p weight 62 1 0
c p weight -62 1 0
c p weight 63 1 0
c p weight -63 1 0
c p weight 64 1 0
c p weight -64 1 0
c p weight 65 1 0
c p weight -65 1 0
c p weight 66 1 0
c p weight -66 1 0
c p weight 67 1 0
c p weight -67 1 0
c p weight 68 1 0
c p weight -68 1 0
c p weight 70 1 0
c p weight -70 1 0
c p weight 71 1 0
c p weight -71 1 0
c p weight 72 1 0
c p weight -72 1 0
c p weight 73 1 0
c p weight -73 1 0
c p weight 74 1 0
c p weight -74 1 0
c p weight 75 1 0
c p weight -75 1 0
c p weight 76 1 0
c p weight -76 1 0
c p weight 77 1 0
c p weight -77 1 0
c p weight 78 1 0
c p weight -78 1 0
c p weight 79 1 0
c p weight -79 1 0
c p weight 80 1 0
c p weight -80 1 0
c p weight 81 1 0
c p weight -81 1 0
c p weight 82 1 0
c p weight -82 1 0
c p weight 83 1 0
c p weight -83 1 0
c p weight 84 1 0
c p weight -84 1 0
c p weight 85 1 0
c p weight -85 1 0
c p weight 86 1 0
c p weight -86 1 0
c p weight 87 1 0
c p weight -87 1 0
c p weight 88 1 0
c p weight -88 1 0
c p weight 89 1 0
c p weight -89 1 0
c p weight 90 1 0
c p weight -90 1 0
